/*********************************************
 * Auto-generated Data File
 * Total Orders: 200
 * Time Periods: 23
 * LIMITED FOR CPLEX COMMUNITY EDITION
 *********************************************/

// Battery parameters
mtu = 0.1;
f_max = 10.0;
f_min = -10.0;
s0 = 5.0;
s_max = 10.0;
nu = 4.09;
eta_plus = 0.95;
eta_minus = 0.95;

// Number of orders
NumOrders = 200;

// Order Side (BUY/SELL)
side = [
  "BUY",
  "BUY",
  "SELL",
  "BUY",
  "BUY",
  "BUY",
  "BUY",
  "SELL",
  "BUY",
  "BUY",
  "BUY",
  "SELL",
  "SELL",
  "BUY",
  "SELL",
  "SELL",
  "BUY",
  "SELL",
  "BUY",
  "SELL",
  "BUY",
  "BUY",
  "BUY",
  "BUY",
  "SELL",
  "BUY",
  "BUY",
  "BUY",
  "BUY",
  "BUY",
  "SELL",
  "SELL",
  "BUY",
  "SELL",
  "SELL",
  "SELL",
  "SELL",
  "SELL",
  "BUY",
  "SELL",
  "SELL",
  "BUY",
  "SELL",
  "BUY",
  "BUY",
  "BUY",
  "SELL",
  "SELL",
  "BUY",
  "SELL",
  "BUY",
  "BUY",
  "SELL",
  "BUY",
  "SELL",
  "BUY",
  "SELL",
  "BUY",
  "SELL",
  "BUY",
  "BUY",
  "BUY",
  "SELL",
  "SELL",
  "BUY",
  "BUY",
  "BUY",
  "BUY",
  "BUY",
  "SELL",
  "SELL",
  "SELL",
  "BUY",
  "SELL",
  "SELL",
  "SELL",
  "BUY",
  "BUY",
  "SELL",
  "BUY",
  "BUY",
  "SELL",
  "SELL",
  "SELL",
  "BUY",
  "SELL",
  "SELL",
  "BUY",
  "BUY",
  "SELL",
  "SELL",
  "SELL",
  "BUY",
  "SELL",
  "SELL",
  "BUY",
  "BUY",
  "SELL",
  "BUY",
  "SELL",
  "SELL",
  "SELL",
  "SELL",
  "SELL",
  "SELL",
  "BUY",
  "SELL",
  "BUY",
  "BUY",
  "SELL",
  "SELL",
  "SELL",
  "SELL",
  "BUY",
  "SELL",
  "SELL",
  "BUY",
  "BUY",
  "SELL",
  "SELL",
  "SELL",
  "BUY",
  "SELL",
  "BUY",
  "SELL",
  "BUY",
  "SELL",
  "SELL",
  "BUY",
  "BUY",
  "BUY",
  "SELL",
  "SELL",
  "SELL",
  "BUY",
  "SELL",
  "BUY",
  "SELL",
  "SELL",
  "SELL",
  "BUY",
  "BUY",
  "BUY",
  "SELL",
  "SELL",
  "BUY",
  "SELL",
  "SELL",
  "SELL",
  "SELL",
  "SELL",
  "BUY",
  "BUY",
  "SELL",
  "BUY",
  "BUY",
  "BUY",
  "BUY",
  "BUY",
  "SELL",
  "BUY",
  "BUY",
  "BUY",
  "BUY",
  "SELL",
  "SELL",
  "SELL",
  "BUY",
  "SELL",
  "SELL",
  "SELL",
  "SELL",
  "BUY",
  "SELL",
  "SELL",
  "SELL",
  "SELL",
  "SELL",
  "SELL",
  "SELL",
  "BUY",
  "SELL",
  "BUY",
  "BUY",
  "SELL",
  "BUY",
  "BUY",
  "SELL",
  "BUY",
  "SELL",
  "SELL",
  "SELL",
  "BUY",
  "SELL",
  "BUY",
  "BUY",
  "BUY",
  "SELL",
  "SELL",
  "SELL"
];

// Order Product (Time Period)
product = [
  "2024-01-01T22:00:00Z",
  "2024-01-01T06:00:00Z",
  "2024-01-01T19:00:00Z",
  "2024-01-01T23:00:00Z",
  "2024-01-01T17:00:00Z",
  "2024-01-01T08:00:00Z",
  "2024-01-01T12:00:00Z",
  "2024-01-01T15:00:00Z",
  "2024-01-01T23:00:00Z",
  "2024-01-01T08:00:00Z",
  "2024-01-01T06:00:00Z",
  "2024-01-01T21:00:00Z",
  "2024-01-01T05:00:00Z",
  "2024-01-01T09:00:00Z",
  "2024-01-01T21:00:00Z",
  "2024-01-01T22:00:00Z",
  "2024-01-01T01:00:00Z",
  "2024-01-01T10:00:00Z",
  "2024-01-01T14:00:00Z",
  "2024-01-01T09:00:00Z",
  "2024-01-01T03:00:00Z",
  "2024-01-01T20:00:00Z",
  "2024-01-01T22:00:00Z",
  "2024-01-01T19:00:00Z",
  "2024-01-01T14:00:00Z",
  "2024-01-01T22:00:00Z",
  "2024-01-01T05:00:00Z",
  "2024-01-01T01:00:00Z",
  "2024-01-01T13:00:00Z",
  "2024-01-01T17:00:00Z",
  "2024-01-01T11:00:00Z",
  "2024-01-01T06:00:00Z",
  "2024-01-01T22:00:00Z",
  "2024-01-01T20:00:00Z",
  "2024-01-01T01:00:00Z",
  "2024-01-01T19:00:00Z",
  "2024-01-01T01:00:00Z",
  "2024-01-01T21:00:00Z",
  "2024-01-01T11:00:00Z",
  "2024-01-01T22:00:00Z",
  "2024-01-01T23:00:00Z",
  "2024-01-01T03:00:00Z",
  "2024-01-01T13:00:00Z",
  "2024-01-01T09:00:00Z",
  "2024-01-01T17:00:00Z",
  "2024-01-01T05:00:00Z",
  "2024-01-01T17:00:00Z",
  "2024-01-01T03:00:00Z",
  "2024-01-01T20:00:00Z",
  "2024-01-01T22:00:00Z",
  "2024-01-01T01:00:00Z",
  "2024-01-01T18:00:00Z",
  "2024-01-01T21:00:00Z",
  "2024-01-01T11:00:00Z",
  "2024-01-01T23:00:00Z",
  "2024-01-01T13:00:00Z",
  "2024-01-01T09:00:00Z",
  "2024-01-01T06:00:00Z",
  "2024-01-01T09:00:00Z",
  "2024-01-01T23:00:00Z",
  "2024-01-01T19:00:00Z",
  "2024-01-01T12:00:00Z",
  "2024-01-01T23:00:00Z",
  "2024-01-01T05:00:00Z",
  "2024-01-01T20:00:00Z",
  "2024-01-01T20:00:00Z",
  "2024-01-01T22:00:00Z",
  "2024-01-01T09:00:00Z",
  "2024-01-01T05:00:00Z",
  "2024-01-01T20:00:00Z",
  "2024-01-01T12:00:00Z",
  "2024-01-01T04:00:00Z",
  "2024-01-01T08:00:00Z",
  "2024-01-01T07:00:00Z",
  "2024-01-01T10:00:00Z",
  "2024-01-01T22:00:00Z",
  "2024-01-01T21:00:00Z",
  "2024-01-01T12:00:00Z",
  "2024-01-01T12:00:00Z",
  "2024-01-01T22:00:00Z",
  "2024-01-01T06:00:00Z",
  "2024-01-01T12:00:00Z",
  "2024-01-01T22:00:00Z",
  "2024-01-01T22:00:00Z",
  "2024-01-01T19:00:00Z",
  "2024-01-01T15:00:00Z",
  "2024-01-01T17:00:00Z",
  "2024-01-01T09:00:00Z",
  "2024-01-01T07:00:00Z",
  "2024-01-01T16:00:00Z",
  "2024-01-01T15:00:00Z",
  "2024-01-01T21:00:00Z",
  "2024-01-01T06:00:00Z",
  "2024-01-01T22:00:00Z",
  "2024-01-01T14:00:00Z",
  "2024-01-01T11:00:00Z",
  "2024-01-01T09:00:00Z",
  "2024-01-01T04:00:00Z",
  "2024-01-01T09:00:00Z",
  "2024-01-01T14:00:00Z",
  "2024-01-01T06:00:00Z",
  "2024-01-01T06:00:00Z",
  "2024-01-01T18:00:00Z",
  "2024-01-01T22:00:00Z",
  "2024-01-01T18:00:00Z",
  "2024-01-01T04:00:00Z",
  "2024-01-01T18:00:00Z",
  "2024-01-01T18:00:00Z",
  "2024-01-01T13:00:00Z",
  "2024-01-01T21:00:00Z",
  "2024-01-01T14:00:00Z",
  "2024-01-01T01:00:00Z",
  "2024-01-01T17:00:00Z",
  "2024-01-01T07:00:00Z",
  "2024-01-01T10:00:00Z",
  "2024-01-01T15:00:00Z",
  "2024-01-01T20:00:00Z",
  "2024-01-01T16:00:00Z",
  "2024-01-01T21:00:00Z",
  "2024-01-01T23:00:00Z",
  "2024-01-01T10:00:00Z",
  "2024-01-01T01:00:00Z",
  "2024-01-01T07:00:00Z",
  "2024-01-01T16:00:00Z",
  "2024-01-01T23:00:00Z",
  "2024-01-01T13:00:00Z",
  "2024-01-01T10:00:00Z",
  "2024-01-01T08:00:00Z",
  "2024-01-01T18:00:00Z",
  "2024-01-01T23:00:00Z",
  "2024-01-01T15:00:00Z",
  "2024-01-01T13:00:00Z",
  "2024-01-01T12:00:00Z",
  "2024-01-01T17:00:00Z",
  "2024-01-01T09:00:00Z",
  "2024-01-01T19:00:00Z",
  "2024-01-01T16:00:00Z",
  "2024-01-01T15:00:00Z",
  "2024-01-01T07:00:00Z",
  "2024-01-01T11:00:00Z",
  "2024-01-01T01:00:00Z",
  "2024-01-01T20:00:00Z",
  "2024-01-01T18:00:00Z",
  "2024-01-01T19:00:00Z",
  "2024-01-01T21:00:00Z",
  "2024-01-01T18:00:00Z",
  "2024-01-01T05:00:00Z",
  "2024-01-01T20:00:00Z",
  "2024-01-01T05:00:00Z",
  "2024-01-01T20:00:00Z",
  "2024-01-01T19:00:00Z",
  "2024-01-01T13:00:00Z",
  "2024-01-01T04:00:00Z",
  "2024-01-01T13:00:00Z",
  "2024-01-01T06:00:00Z",
  "2024-01-01T12:00:00Z",
  "2024-01-01T01:00:00Z",
  "2024-01-01T01:00:00Z",
  "2024-01-01T21:00:00Z",
  "2024-01-01T14:00:00Z",
  "2024-01-01T18:00:00Z",
  "2024-01-01T15:00:00Z",
  "2024-01-01T14:00:00Z",
  "2024-01-01T14:00:00Z",
  "2024-01-01T02:00:00Z",
  "2024-01-01T14:00:00Z",
  "2024-01-01T06:00:00Z",
  "2024-01-01T20:00:00Z",
  "2024-01-01T16:00:00Z",
  "2024-01-01T17:00:00Z",
  "2024-01-01T21:00:00Z",
  "2024-01-01T17:00:00Z",
  "2024-01-01T10:00:00Z",
  "2024-01-01T10:00:00Z",
  "2024-01-01T16:00:00Z",
  "2024-01-01T17:00:00Z",
  "2024-01-01T11:00:00Z",
  "2024-01-01T12:00:00Z",
  "2024-01-01T22:00:00Z",
  "2024-01-01T11:00:00Z",
  "2024-01-01T17:00:00Z",
  "2024-01-01T04:00:00Z",
  "2024-01-01T15:00:00Z",
  "2024-01-01T20:00:00Z",
  "2024-01-01T16:00:00Z",
  "2024-01-01T18:00:00Z",
  "2024-01-01T02:00:00Z",
  "2024-01-01T21:00:00Z",
  "2024-01-01T05:00:00Z",
  "2024-01-01T15:00:00Z",
  "2024-01-01T22:00:00Z",
  "2024-01-01T06:00:00Z",
  "2024-01-01T04:00:00Z",
  "2024-01-01T14:00:00Z",
  "2024-01-01T19:00:00Z",
  "2024-01-01T12:00:00Z",
  "2024-01-01T01:00:00Z",
  "2024-01-01T20:00:00Z",
  "2024-01-01T17:00:00Z",
  "2024-01-01T21:00:00Z"
];

// Order Price
price = [
  48.41,
  36.7,
  81.24,
  47.47,
  70.94,
  70.17,
  66.73,
  66.36,
  39.7,
  76.43,
  46.3,
  39.74,
  -45.17,
  71.33,
  41.36,
  46.16,
  48.67,
  73.36,
  85.35,
  82.03,
  43.32,
  36.43,
  39.95,
  79.69,
  79.2,
  46.49,
  52.42,
  38.22,
  72.66,
  78.88,
  83.8,
  43.12,
  48.97,
  39.16,
  34.06,
  79.2,
  41.72,
  45.8,
  83.77,
  -26.39,
  39.45,
  32.73,
  81.08,
  74.07,
  62.68,
  45.58,
  78.04,
  51.75,
  50.74,
  53.59,
  42.59,
  -40.83,
  55.3,
  70.12,
  41.08,
  64.52,
  66.65,
  43.58,
  84.99,
  39.87,
  81.08,
  77.36,
  44.43,
  50.52,
  26.1,
  35.35,
  45.54,
  75.95,
  -40.55,
  27.47,
  83.93,
  38.28,
  78.5,
  40.59,
  61.05,
  45.78,
  36.22,
  79.45,
  77.48,
  35.55,
  41.91,
  96.05,
  31.57,
  45.5,
  78.19,
  82.35,
  77.22,
  79.92,
  39.78,
  73.9,
  83.49,
  33.58,
  39.11,
  47.28,
  88.64,
  85.2,
  77.82,
  44.78,
  87.38,
  91.67,
  39.89,
  47.83,
  79.44,
  49.24,
  86.5,
  38.74,
  -42.31,
  81.83,
  78.86,
  47.51,
  80.52,
  23.95,
  70.31,
  26.37,
  78.02,
  74.29,
  38.38,
  83.98,
  28.0,
  41.15,
  78.35,
  47.38,
  48.58,
  74.83,
  37.51,
  75.07,
  79.45,
  70.57,
  73.11,
  -34.02,
  -16.47,
  79.88,
  90.71,
  77.53,
  80.21,
  86.06,
  82.03,
  81.57,
  42.51,
  68.24,
  44.42,
  41.92,
  86.67,
  77.95,
  37.89,
  82.11,
  45.03,
  38.44,
  50.15,
  38.12,
  83.83,
  73.29,
  37.72,
  64.83,
  36.5,
  79.94,
  42.89,
  35.98,
  25.36,
  78.6,
  79.6,
  79.03,
  73.77,
  85.33,
  59.39,
  87.32,
  44.26,
  52.96,
  84.73,
  71.6,
  41.49,
  70.18,
  76.03,
  71.04,
  84.93,
  69.08,
  78.59,
  -36.25,
  50.5,
  74.67,
  71.43,
  43.28,
  82.92,
  35.46,
  78.4,
  74.79,
  41.11,
  32.42,
  45.91,
  74.37,
  53.8,
  35.62,
  44.46,
  79.76,
  77.27,
  85.61,
  39.41,
  47.58,
  88.27,
  53.66
];

// Order Quantity
quantity = [
  0.7000000000000001,
  1.9,
  0.7000000000000001,
  1.4,
  1.6,
  0.6000000000000001,
  0.9,
  1.5,
  1.2,
  2.0,
  1.2,
  3.1,
  1.4,
  4.600000000000001,
  17.1,
  5.100000000000001,
  2.7,
  4.4,
  2.0,
  3.0,
  2.5,
  5.0,
  1.7,
  4.800000000000001,
  11.3,
  1.7,
  2.7,
  3.0,
  2.2,
  0.9,
  0.9,
  4.4,
  1.5,
  0.5,
  2.8,
  1.5,
  4.3,
  2.8,
  0.7000000000000001,
  1.6,
  0.7000000000000001,
  3.9,
  3.4,
  1.2,
  0.8,
  0.9,
  2.2,
  1.8,
  5.0,
  8.4,
  0.9,
  2.1,
  4.0,
  2.5,
  1.7,
  1.6,
  2.2,
  2.7,
  0.9,
  1.1,
  0.4,
  6.7,
  5.9,
  2.5,
  2.1,
  1.7,
  2.0,
  4.2,
  0.6000000000000001,
  3.5,
  1.4,
  2.3,
  3.3,
  1.2,
  8.1,
  4.100000000000001,
  4.7,
  3.3,
  10.7,
  0.7000000000000001,
  6.800000000000001,
  3.2,
  1.1,
  1.3,
  8.0,
  1.8,
  2.0,
  5.5,
  1.7,
  2.0,
  5.300000000000001,
  0.2,
  4.9,
  1.0,
  2.6,
  2.0,
  0.5,
  2.9,
  2.2,
  1.6,
  1.3,
  1.8,
  7.5,
  1.7,
  1.8,
  0.9,
  0.3,
  4.9,
  2.2,
  1.4,
  2.6,
  0.8,
  3.8,
  2.5,
  1.4,
  2.6,
  0.9,
  6.2,
  5.300000000000001,
  0.7000000000000001,
  3.5,
  3.6,
  3.3,
  2.1,
  1.0,
  4.9,
  0.5,
  1.6,
  1.2,
  2.4,
  1.8,
  5.300000000000001,
  4.0,
  1.0,
  0.9,
  5.9,
  2.9,
  3.9,
  3.2,
  1.7,
  1.8,
  3.5,
  1.5,
  2.5,
  2.3,
  2.0,
  0.6000000000000001,
  0.9,
  4.5,
  1.4,
  3.4,
  2.3,
  1.9,
  2.5,
  0.6000000000000001,
  3.4,
  5.600000000000001,
  0.6000000000000001,
  0.9,
  2.5,
  4.9,
  3.4,
  4.5,
  2.2,
  3.2,
  3.9,
  2.5,
  6.5,
  6.2,
  1.7,
  3.9,
  0.8,
  6.100000000000001,
  1.9,
  4.100000000000001,
  5.600000000000001,
  0.4,
  1.8,
  0.4,
  6.2,
  2.5,
  4.5,
  0.5,
  2.5,
  6.300000000000001,
  0.7000000000000001,
  0.9,
  1.9,
  2.8,
  2.5,
  8.4,
  0.5,
  6.5,
  5.7,
  4.600000000000001,
  3.8,
  1.1,
  5.9,
  2.5,
  0.7000000000000001
];
